CARROOOOOOOOOOCAAAAAAAAAAAAAA
Tried aggregator 1 time.
MIP Presolve eliminated 0 rows and 1 columns.
Reduced MIP has 1529768 rows, 200 columns, and 6119072 nonzeros.
Reduced MIP has 200 binaries, 0 generals, 0 SOSs, and 0 indicators.
Probing time =    0.11 sec.
Tried aggregator 1 time.
Presolve time =    4.91 sec.
Found feasible solution after 5.53 sec.  Objective = 200.0000
Probing time =    0.11 sec.
MIP emphasis: balance optimality and feasibility.
MIP search method: dynamic search.
Parallel mode: none, using 1 thread.
Root relaxation solution time =   16.80 sec.

        Nodes                                         Cuts/
   Node  Left     Objective  IInf  Best Integer    Best Bound    ItCnt     Gap

*     0+    0                          200.0000                   5636     --- 
      0     0       45.5000    25      200.0000       45.5000     5636   77.25%
*     0     0      integral     0       46.0000     Cuts: 158     5770    0.00%
      0     0        cutoff             46.0000       46.0000     5770    0.00%
Elapsed real time =  82.36 sec. (tree size =  0.00 MB, solutions = 2)

Zero-half cuts applied:  157

Root node processing (before b&c):
  Real time             =   77.46
Sequential b&c:
  Real time             =    0.00
                          -------
Total (root+branch&cut) =   77.46 sec.
Nodes: 0
OBJ: 46
1 1 1 0 1 1 1 1 -4.53637e-13 1 1 1 1 0 1 1 -5.8975e-13 1 0 -1.06359e-13 0 1 1 -3.3995e-13 1 1 1 1 1 1 -1.96287e-13 1 1 1 1 1 1 1 1 -5.99742e-13 1 1 1 1 1 1 3.09308e-13 1 1 1 1 1.82077e-13 1 1 1 1 1 1 1 -2.38032e-13 1 1 1 0 -3.30624e-13 1 1 1 1 1 1 0 1 2.8999e-13 1 1 1 1 1 1 1 1 0 1.28564e-13 1 1 1 1 1 1 1 1 -6.59472e-13 1.27454e-13 1 1 1 1 1 1 1 1 1 1 1 -2.08278e-13 1 1 1 1 1 1 1 1 1 1 0 1 1 1 1 1 1 1 0 1 1 1 3.76144e-13 1.25011e-13 0 1 1 -2.52298e-13 0 -1.14131e-13 -2.64233e-13 -2.12663e-13 1 1 1.28564e-13 1 1 0 1 1 1 1 1 0 1 1 1 1 -1.0747e-13 1 -3.85025e-13 -1.14797e-13 1 1 1.05804e-13 1 1 1 1 1 1 6.58362e-13 1 1 1 1 -8.27782e-13 -1.46105e-13 1 1 1 1 1 1 1 1 1 1 1 1 1 1 0 -6.88338e-13 -3.62821e-13 1 1 1 1 1 -5.79536e-13 1 1 1 
